outputs/case_450.model.txt
dispose_subsidiary_shares = False
other_necessary_measures = True
prohibit_use_name_and_change_registration = False
subsidiary_direct_or_indirect_directors = True
suspend_subsidiary_business_partial = False
remove_manager_or_staff = False
revoke_statutory_resolution = False
correction_flag = True
suspend_director_or_supervisor_duty = False
suspend_subsidiary_business_all = False
remove_director_or_supervisor = False
violation_flag = True
subsidiary_shares_held = True
economic_ministry_notified = False
dispose_deadline_days_left = 0
dispose_shares_within_deadline = False
revoke_license = False
penalty = False
penalty_measures = True
notify_economic_ministry = True
correction_ordered = True
violation_exists = True
liquidation_ordered = False